4072
4823
5772
3190
1960
540
8900
3818
910
408
10095
2845
5748
6959
7924
6093
872
5706
3437
8377
9665
8558
1887
4454
1098
8133
2741
5744
4030
10036
2070
4081
2412
1656
8182
2168
4036
1952
6703
7108
9206
6735
2838
6878
5376
647
5320
10094
1740
4607
